Route #1: 1 2 14 25 36 37 53 43 32 30 19 18 9 3 15 26 20 10 4 5 11 22 21 33 39 46 47 48 40 34 27 16 12 6 23 28 17 7 8 13 24 29 31 42 52 51 56 65 66 77 91 90 84 89 83 76 61 55 50 35 41 49 60 72 82 81 71 75 70 59 58 64 69 68 74 63 57 45 38 44 54 62 67 73 79 85 78 97 98 92 99 100 86 80 87 88 93 94 95 96
Cost 46450
